NAME: tsp40_8
COMMENT: 40-tsp problem (Padberg/Rinaldi)
TYPE: TSP
DIMENSION: 40
EDGE_WEIGHT_TYPE : EUC_2D
NODE_COORD_SECTION
1 26 10
2 38 18
3 39 7
4 38 2
5 2 29
6 31 11
7 36 26
8 16 38
9 11 13
10 12 33
11 11 38
12 25 3
13 8 38
14 9 34
15 25 13
16 29 30
17 2 26
18 32 17
19 0 22
20 5 12
21 20 36
22 1 4
23 7 5
24 1 38
25 23 27
26 39 35
27 27 17
28 37 12
29 16 13
30 29 6
31 4 37
32 5 37
33 16 18
34 19 14
35 24 19
36 33 25
37 12 23
38 4 34
39 25 18
40 30 23
